Li Nb  O Ta 
 1.0000000000000000
     5.1472556000000003   -2.9717758000000001    9.2417020000000001
     0.0000000000000000    5.9435406000000004    9.2417020000000001
    -5.1472556000000003   -2.9717758000000001    9.2417020000000001
 Li  Nb  O   Ta 
  16  10  48   6
Cartesian
  0.0000000000000000 -0.0000000644993999  3.9076910367447995
  0.0000000000000000 -0.0000001398940301 10.8389411978941013
 -2.5736278000000001 -1.4858879644993999  8.5285420367447990
 -2.5736277999999997 -1.4858880398940304 15.4597921978940995
  0.0000000000000000  2.9717702355006002  8.5285420367447990
  0.0000000000000000  2.9717701601059705 15.4597921978941031
 -2.5736278000000001  1.4858823355006003 13.1493930367448009
 -2.5736277999999997  1.4858822601059702 20.0806431978941013
  2.5736278000000001 -1.4858879644993999  8.5285420367448008
  2.5736277999999997 -1.4858880398940304 15.4597921978940995
  0.0000000000000000 -2.9717758644993997 13.1493930367448009
  0.0000000000000000 -2.9717759398940307 20.0806431978940978
  2.5736278000000001  1.4858823355006003 13.1493930367447991
  2.5736277999999997  1.4858822601059702 20.0806431978941013
  0.0000000000000000 -0.0000055644993995 17.7702440367447991
  0.0000000000000000 -0.0000056398940300 24.7014941978940996
  0.0000000000000000 -0.0000000022555500  0.0056850329853000
 -2.5736278000000006 -1.4858879022555502  4.6265360329853005
 -2.5736278000000006 -1.4858879776540304 11.5577958979217001
  0.0000000000000000  2.9717702977444507  4.6265360329853005
 -2.5736278000000006  1.4858823977444504  9.2473870329853014
  2.5736278000000006 -1.4858879022555502  4.6265360329853005
  2.5736278000000006  1.4858823977444502  9.2473870329852996
  2.5736278000000006  1.4858823223459701 16.1786468979217020
  0.0000000000000000 -0.0000055022555498 13.8682380329852997
  0.0000000000000000 -0.0000055776540302 20.7994978979217002
 -1.5769904344500001 -0.1507108529303700  5.5047537181307007
  0.9190146921997601 -1.2903584229372900  5.5047537181306998
  0.6579757422502399  1.4410689645177903  5.5047537181306998
  1.6545992102101201  0.1955192976298101  7.8151856873221002
 -0.9966237253226601  1.3351655303392698  7.8151856873220993
 -0.6579749701619002 -1.5306840260230601  7.8151861494072001
 -4.1506182344500004 -1.6365987529303703 10.1256047181307007
 -1.6546131078002404 -2.7762463229372902 10.1256047181307007
 -1.9156520577497602 -0.0448189354822099 10.1256047181306990
 -0.9190285897898804 -1.2903686023701901 12.4360366873221011
 -3.5702515253226603 -0.1507223696607305 12.4360366873221011
 -3.2316027701619010 -3.0165719260230599 12.4360371494072002
 -1.5769904344500001  2.8210594470696302 10.1256047181306990
  0.9190146921997601  1.6814118770627102 10.1256047181307007
  0.6579757422502399  4.4128392645177907 10.1256047181307007
  1.6545992102101201  3.1672895976298103 12.4360366873221011
 -0.9966237253226601  4.3069358303392704 12.4360366873220993
 -0.6579749701619002  1.4410862739769401 12.4360371494072002
 -4.1506182344500004  1.3351715470696299 14.7464557181307008
 -1.6546131078002404  0.1955239770627100 14.7464557181307008
 -1.9156520577497602  2.9269513645177900 14.7464557181307008
 -0.9190285897898804  1.6814016976298103 17.0568876873221029
 -3.5702515253226603  2.8210479303392701 17.0568876873220994
 -3.2316027701619010 -0.0448016260230597 17.0568881494072002
  0.9966373655500000 -1.6365987529303698 10.1256047181307007
  3.4926424921997605 -2.7762463229372902 10.1256047181307007
  3.2316035422502405 -0.0448189354822096 10.1256047181307007
  4.2282270102101194 -1.2903686023701897 12.4360366873221011
  1.5770040746773399 -0.1507223696607303 12.4360366873220993
  1.9156528298381001 -3.0165719260230599 12.4360371494072002
 -1.5769904344500003 -3.1224866529303701 14.7464557181307008
  0.9190146921997600 -4.2621342229372905 14.7464557181307008
  0.6579757422502404 -1.5307068354822098 14.7464557181307008
  1.6545992102101192 -2.7762565023701899 17.0568876873221029
 -0.9966237253226602 -1.6366102696607305 17.0568876873220994
 -0.6579749701619004 -4.5024598260230597 17.0568881494072002
  0.9966373655500000  1.3351715470696299 14.7464557181307008
  3.4926424921997605  0.1955239770627101 14.7464557181307008
  3.2316035422502405  2.9269513645177905 14.7464557181307008
  4.2282270102101194  1.6814016976298107 17.0568876873220994
  1.5770040746773399  2.8210479303392706 17.0568876873220994
  1.9156528298381001 -0.0448016260230597 17.0568881494072002
 -1.5769904344500003 -0.1507163529303703 19.3673067181306990
  0.9190146921997600 -1.2903639229372903 19.3673067181306990
  0.6579757422502404  1.4410634645177904 19.3673067181306990
  1.6545992102101192  0.1955137976298105 21.6777386873221012
 -0.9966237253226602  1.3351600303392703 21.6777386873221012
 -0.6579749701619004 -1.5306895260230595 21.6777391494072020
  0.0000000000000000 -0.0000000776540301  6.9369448979217001
  0.0000000000000000  2.9717702223459703 11.5577958979216984
 -2.5736278000000006  1.4858823223459701 16.1786468979216984
  2.5736278000000006 -1.4858879776540304 11.5577958979217001
  0.0000000000000000 -2.9717758022555500  9.2473870329853014
  0.0000000000000000 -2.9717758776540304 16.1786468979217020
