Li Nb  O Ta + 0 %                       
   1.00194849072714     
     5.1347500881973476   -2.9628514772937753    9.1879744848483362
     0.0026333339924743    5.9272630810290021    9.1870141731214687
    -5.1318230157555744   -2.9642022218375814    9.1859128072683678
   Li   Nb   O    Ta
    16    10    48     6
Direct
  0.1383651019744733  0.1393751332862322  0.1398543016210647
  0.3914747605337885  0.3900304143655490  0.3908381969064197
  0.1402933151867841  0.1403137219901540  0.6409332390850290
  0.3917213051121057  0.3909295065495246  0.8906217116396148
  0.1401079902568669  0.6391217532655303  0.1399258862469675
  0.3900075758028918  0.8902212129344363  0.3904942687345431
  0.1403003666423865  0.6386074504527445  0.6394144139298583
  0.3906999973660518  0.8912446812913629  0.8901467357287054
  0.6396966489802370  0.1408553111141456  0.1385186857527717
  0.8908651481326099  0.3919573576363383  0.3912886442660640
  0.6404784409646027  0.1398116264973393  0.6389536052431980
  0.8910599386797977  0.3918430341435176  0.8899934683720706
  0.6398500303642468  0.6404909493838972  0.1401147156951429
  0.8895075539282339  0.8902277853373761  0.3915662040430567
  0.6409370189642883  0.6401086486517782  0.6414670481233593
  0.8910233510090019  0.8908179836973732  0.8913340307643316
  0.9995929525117986  0.0015120114838495  0.9967707959604030
  0.9993984636636339  0.0000707826158171  0.4976160849953343
  0.2517190439409253  0.2489139718806690  0.7495956466882074
  0.9975248073897880  0.4979484059792744  0.0008893602649155
  0.0005616622548195  0.4971539515079154  0.5008875900375582
  0.4998751637807231  0.9974052553320618  0.0009260101630380
  0.4995586212141894  0.5000383954410380  0.9978626360846656
  0.7509654316986646  0.7494527616372965  0.2498715894792292
  0.4998527439612142  0.5013112805778401  0.4965701137152798
  0.7494311627849072  0.7509687813066654  0.7480325901373021
  0.0568460187943640  0.1804853627552418  0.3607314474835087
  0.3606708684452173  0.0567454981478558  0.1806868863932924
  0.1799358947037205  0.3605135092863118  0.0570131732138866
  0.4309502351077882  0.3063236378729818  0.1102070264077299
  0.1094528976377981  0.4313732194607854  0.3062549502632989
  0.3067741224635827  0.1104853465689139  0.4307554603895835
  0.0559029704320848  0.1808569980695624  0.8604997855621556
  0.3595210514580024  0.0569399101938423  0.6813438718163204
  0.1809428987769329  0.3608229500529346  0.5560765741355420
  0.4311318203691885  0.3056779730371120  0.6112102098352763
  0.1108440672733880  0.4300702049001123  0.8058858731670131
  0.3056577325898329  0.1109196095808457  0.9312628556750948
  0.0566453413859239  0.6800561328326272  0.3609362273926455
  0.3607136885865790  0.5568110125840221  0.1800765393846105
  0.1796758306677230  0.8610310826769746  0.0568922262506201
  0.4302557900570687  0.8072819356606264  0.1099186055168486
  0.1102899889795714  0.9305117825236925  0.3070315111647029
  0.3069033730490486  0.6097330807499273  0.4306823222400802
  0.0570674793142512  0.6790735881342681  0.8608467664806472
  0.3609415113764685  0.5568545021335395  0.6796542283251082
  0.1797448701379633  0.8608591561406074  0.5568610521736729
  0.4303227861471469  0.8070245486954370  0.6099733654854371
  0.1098558179831070  0.9300741913213171  0.8071857687404312
  0.3064922202737976  0.6098172724180005  0.9308348982630924
  0.5573211244884965  0.1801533765945224  0.3606085938481517
  0.8611081501527945  0.0565018318622739  0.1799204337375009
  0.6802099895413299  0.3608657059162212  0.0566650295778383
  0.9302380167102652  0.3070108772878878  0.1098156494091765
  0.6102669420771748  0.4306621195288620  0.3069345864456077
  0.8071968623391121  0.1098819073028953  0.4306456496667234
  0.5568522067517901  0.1794317152065798  0.8609627870819635
  0.8607116600727051  0.0566290836130744  0.6797955673418373
  0.6798223370950194  0.3609791120406300  0.5568608342706909
  0.9305679853060396  0.3068119709199676  0.6099001106009111
  0.6101978439299338  0.4303030679053701  0.8069108257172168
  0.8067842816345100  0.1094247110943822  0.9307652420708499
  0.5560611325168360  0.6811464201734633  0.3601960487345190
  0.8602031904993985  0.5568861787873828  0.1797707523995140
  0.6803664554719772  0.8606009586962504  0.0562741423011142
  0.9306827590122347  0.8053990762218994  0.1111031650860393
  0.6108085872338436  0.9310023024185853  0.3060210839020567
  0.8054940564535881  0.6109123312794517  0.4304579082236882
  0.5560752717014069  0.6801064203240440  0.8610242129556472
  0.8607866573583608  0.5562699876916140  0.6798449238695453
  0.6802523323371436  0.8598117289169366  0.5571367940863495
  0.9307146398657163  0.8058988984870801  0.6109745188621915
  0.6103785235987588  0.9306494777439326  0.8062343044465812
  0.8063714488911815  0.6110079787683235  0.9294038774295059
  0.2486559334577171  0.2499003729164818  0.2476561012199953
  0.2480856447858440  0.7481024758059398  0.2484660741192262
  0.2475355365267730  0.7475021736867561  0.7493296368005189
  0.7473165391103878  0.2477805966199642  0.2491942238426554
  0.4968298008281127  0.9976914521562246  0.5001553259894224
  0.7483514171420321  0.2482890158756943  0.7483167965242733
 
  0.00000000E+00  0.00000000E+00  0.00000000E+00
  0.00000000E+00  0.00000000E+00  0.00000000E+00
  0.00000000E+00  0.00000000E+00  0.00000000E+00
  0.00000000E+00  0.00000000E+00  0.00000000E+00
  0.00000000E+00  0.00000000E+00  0.00000000E+00
  0.00000000E+00  0.00000000E+00  0.00000000E+00
  0.00000000E+00  0.00000000E+00  0.00000000E+00
  0.00000000E+00  0.00000000E+00  0.00000000E+00
  0.00000000E+00  0.00000000E+00  0.00000000E+00
  0.00000000E+00  0.00000000E+00  0.00000000E+00
  0.00000000E+00  0.00000000E+00  0.00000000E+00
  0.00000000E+00  0.00000000E+00  0.00000000E+00
  0.00000000E+00  0.00000000E+00  0.00000000E+00
  0.00000000E+00  0.00000000E+00  0.00000000E+00
  0.00000000E+00  0.00000000E+00  0.00000000E+00
  0.00000000E+00  0.00000000E+00  0.00000000E+00
  0.00000000E+00  0.00000000E+00  0.00000000E+00
  0.00000000E+00  0.00000000E+00  0.00000000E+00
  0.00000000E+00  0.00000000E+00  0.00000000E+00
  0.00000000E+00  0.00000000E+00  0.00000000E+00
  0.00000000E+00  0.00000000E+00  0.00000000E+00
  0.00000000E+00  0.00000000E+00  0.00000000E+00
  0.00000000E+00  0.00000000E+00  0.00000000E+00
  0.00000000E+00  0.00000000E+00  0.00000000E+00
  0.00000000E+00  0.00000000E+00  0.00000000E+00
  0.00000000E+00  0.00000000E+00  0.00000000E+00
  0.00000000E+00  0.00000000E+00  0.00000000E+00
  0.00000000E+00  0.00000000E+00  0.00000000E+00
  0.00000000E+00  0.00000000E+00  0.00000000E+00
  0.00000000E+00  0.00000000E+00  0.00000000E+00
  0.00000000E+00  0.00000000E+00  0.00000000E+00
  0.00000000E+00  0.00000000E+00  0.00000000E+00
  0.00000000E+00  0.00000000E+00  0.00000000E+00
  0.00000000E+00  0.00000000E+00  0.00000000E+00
  0.00000000E+00  0.00000000E+00  0.00000000E+00
  0.00000000E+00  0.00000000E+00  0.00000000E+00
  0.00000000E+00  0.00000000E+00  0.00000000E+00
  0.00000000E+00  0.00000000E+00  0.00000000E+00
  0.00000000E+00  0.00000000E+00  0.00000000E+00
  0.00000000E+00  0.00000000E+00  0.00000000E+00
  0.00000000E+00  0.00000000E+00  0.00000000E+00
  0.00000000E+00  0.00000000E+00  0.00000000E+00
  0.00000000E+00  0.00000000E+00  0.00000000E+00
  0.00000000E+00  0.00000000E+00  0.00000000E+00
  0.00000000E+00  0.00000000E+00  0.00000000E+00
  0.00000000E+00  0.00000000E+00  0.00000000E+00
  0.00000000E+00  0.00000000E+00  0.00000000E+00
  0.00000000E+00  0.00000000E+00  0.00000000E+00
  0.00000000E+00  0.00000000E+00  0.00000000E+00
  0.00000000E+00  0.00000000E+00  0.00000000E+00
  0.00000000E+00  0.00000000E+00  0.00000000E+00
  0.00000000E+00  0.00000000E+00  0.00000000E+00
  0.00000000E+00  0.00000000E+00  0.00000000E+00
  0.00000000E+00  0.00000000E+00  0.00000000E+00
  0.00000000E+00  0.00000000E+00  0.00000000E+00
  0.00000000E+00  0.00000000E+00  0.00000000E+00
  0.00000000E+00  0.00000000E+00  0.00000000E+00
  0.00000000E+00  0.00000000E+00  0.00000000E+00
  0.00000000E+00  0.00000000E+00  0.00000000E+00
  0.00000000E+00  0.00000000E+00  0.00000000E+00
  0.00000000E+00  0.00000000E+00  0.00000000E+00
  0.00000000E+00  0.00000000E+00  0.00000000E+00
  0.00000000E+00  0.00000000E+00  0.00000000E+00
  0.00000000E+00  0.00000000E+00  0.00000000E+00
  0.00000000E+00  0.00000000E+00  0.00000000E+00
  0.00000000E+00  0.00000000E+00  0.00000000E+00
  0.00000000E+00  0.00000000E+00  0.00000000E+00
  0.00000000E+00  0.00000000E+00  0.00000000E+00
  0.00000000E+00  0.00000000E+00  0.00000000E+00
  0.00000000E+00  0.00000000E+00  0.00000000E+00
  0.00000000E+00  0.00000000E+00  0.00000000E+00
  0.00000000E+00  0.00000000E+00  0.00000000E+00
  0.00000000E+00  0.00000000E+00  0.00000000E+00
  0.00000000E+00  0.00000000E+00  0.00000000E+00
  0.00000000E+00  0.00000000E+00  0.00000000E+00
  0.00000000E+00  0.00000000E+00  0.00000000E+00
  0.00000000E+00  0.00000000E+00  0.00000000E+00
  0.00000000E+00  0.00000000E+00  0.00000000E+00
  0.00000000E+00  0.00000000E+00  0.00000000E+00
  0.00000000E+00  0.00000000E+00  0.00000000E+00
