Li Nb  O Ta + -5 %                      
  0.983047572491559     
     5.1252588692641154   -2.9576318691106103    9.2213761417519553
     0.0024430964566349    5.9164214575776466    9.2203883640568218
    -5.1226152513760468   -2.9589266081252994    9.2194835049918140
   Li   Nb   O    Ta
    16    10    48     6
Direct
  0.1398972356571119  0.1405511322730817  0.1409617261443648
  0.3919912106548260  0.3910006293253944  0.3918714694586667
  0.1411541772513052  0.1414642662146346  0.6418946105318283
  0.3921867042575911  0.3915132580816623  0.8915013781554878
  0.1410061604058414  0.6404404726475795  0.1409998939924580
  0.3910971838038769  0.8911178693529122  0.3911092111241184
  0.1412361337994083  0.6398536417126951  0.6405626683529059
  0.3915296844753590  0.8920698362999251  0.8911312794630216
  0.6408609158455855  0.1415496993558562  0.1398175159010875
  0.8914745353413440  0.3927231816170318  0.3917743581320586
  0.6412434391507511  0.1407926092179854  0.6403426387755320
  0.8918838736618693  0.3924715223911358  0.8907389331348855
  0.6410181204717499  0.6415653314664791  0.1410975476894280
  0.8906479080514600  0.8910735986339089  0.3922725637171728
  0.6418330624992419  0.6410477527589604  0.6421274572631196
  0.8916966444079567  0.8913926386946639  0.8921931992634298
  0.9995050182082669  0.0013235506157077  0.9966718224355566
  0.9991952810187975 -0.0001476704648167  0.4976886726281469
  0.2513889327290265  0.2488769798355225  0.7495282987743641
  0.9973458336985456  0.4979440398392320  0.0006042725251973
  0.0002266141320995  0.4971478324938515  0.5007814039341073
  0.4998593117265920  0.9971923508613012  0.0006494701671412
  0.4995036627139437  0.4999536686468701  0.9977002573144962
  0.7509893993122246  0.7491795617575636  0.2496510484282411
  0.4997209407449740  0.5011033350074812  0.4965437082859737
  0.7493475258872246  0.7506495733418906  0.7479871544414679
  0.0512945389195741  0.1868278679107745  0.3588297401047577
  0.3584828039602251  0.0517661338587016  0.1866039944436662
  0.1860847944755056  0.3589607128353335  0.0514931397347366
  0.4370084633449702  0.3014967152704174  0.1083649061454199
  0.1075211724408647  0.4374299526387362  0.3016364288291834
  0.3012605183390274  0.1086196830667274  0.4369871037168602
  0.0512156024560155  0.1870074637378448  0.8586206644893271
  0.3576285649145214  0.0521631670578894  0.6873827823075073
  0.1867892944648837  0.3589494257307569  0.5514528586095242
  0.4369739186067517  0.3011847591638605  0.6089471818912437
  0.1087525425528842  0.4360878325238645  0.8012998875417102
  0.3010544813886091  0.1089102859804399  0.9370766030240030
  0.0513266913803671  0.6861404285219093  0.3590893709154060
  0.3590482445410415  0.5512335634842146  0.1863301542199297
  0.1859725431091972  0.8588895168904718  0.0515288191376270
  0.4364223780711968  0.8021733385208090  0.1081504611804643
  0.1084435566563263  0.9365668576220783  0.3019947917228001
  0.3020575407043384  0.6079838467266486  0.4367159419552705
  0.0515827962364993  0.6854059530254405  0.8589317270903919
  0.3591683234880196  0.5512232229138060  0.6859733736652296
  0.1860553427755202  0.8588318535175714  0.5514810404883651
  0.4366505410794608  0.8014157621589056  0.6083885679927589
  0.1082598885127330  0.9363943373699970  0.8018607991767270
  0.3015431167295581  0.6080495737665516  0.9370246241964499
  0.5518293182473374  0.1864165500196496  0.3586345109637337
  0.8593819681691044  0.0509778568426794  0.1861433663777037
  0.6865904198485879  0.3589196805189306  0.0511590075307455
  0.9363759874877535  0.3019232405019796  0.1081609291179638
  0.6086187552820325  0.4368798798595940  0.3016648408512432
  0.8021252510734398  0.1080035179744463  0.4368099983389911
  0.5515368913354016  0.1856040964800239  0.8590710307839859
  0.8590103563432269  0.0510530226410546  0.6862329312135974
  0.6861523668400927  0.3588000546815813  0.5514993461111400
  0.9366657689310659  0.3018217188429301  0.6082315626939820
  0.6083447792148921  0.4365843859905931  0.8017451337123610
  0.8019481411818935  0.1077314286484179  0.9367849754748713
  0.5514985243038605  0.6870756347285839  0.3582738739184460
  0.8582915876930137  0.5520567762327291  0.1859571067330345
  0.6864881506553575  0.8586546518510830  0.0515169484469289
  0.9367288845582346  0.8009130792540041  0.1088309974156116
  0.6088220327435659  0.9368775649863730  0.3009905164534983
  0.8008148180579422  0.6089954381209458  0.4365546228488306
  0.5511656982975970  0.6864147654738432  0.8591006993833963
  0.8585385922768254  0.5516815919656483  0.6860064842196559
  0.6864108909256388  0.8582557709820394  0.5520699396301650
  0.9367374839005982  0.8010618957233235  0.6090529156221128
  0.6084757776938355  0.9365514737437880  0.8015699216816458
  0.8013578015766233  0.6091033275547190  0.9356081931920637
  0.2484758245980498  0.2498818944911596  0.2475624423219016
  0.2480076787048539  0.7479832822143364  0.2483956820022690
  0.2474435176871604  0.7473972616873689  0.7492886609126591
  0.7473230331503531  0.2477244073367002  0.2490472535399236
  0.4968341399752517  0.9975704255687802  0.5000401649830096
  0.7482235901914138  0.2482104088103908  0.7482828209109534
 
  0.00000000E+00  0.00000000E+00  0.00000000E+00
  0.00000000E+00  0.00000000E+00  0.00000000E+00
  0.00000000E+00  0.00000000E+00  0.00000000E+00
  0.00000000E+00  0.00000000E+00  0.00000000E+00
  0.00000000E+00  0.00000000E+00  0.00000000E+00
  0.00000000E+00  0.00000000E+00  0.00000000E+00
  0.00000000E+00  0.00000000E+00  0.00000000E+00
  0.00000000E+00  0.00000000E+00  0.00000000E+00
  0.00000000E+00  0.00000000E+00  0.00000000E+00
  0.00000000E+00  0.00000000E+00  0.00000000E+00
  0.00000000E+00  0.00000000E+00  0.00000000E+00
  0.00000000E+00  0.00000000E+00  0.00000000E+00
  0.00000000E+00  0.00000000E+00  0.00000000E+00
  0.00000000E+00  0.00000000E+00  0.00000000E+00
  0.00000000E+00  0.00000000E+00  0.00000000E+00
  0.00000000E+00  0.00000000E+00  0.00000000E+00
  0.00000000E+00  0.00000000E+00  0.00000000E+00
  0.00000000E+00  0.00000000E+00  0.00000000E+00
  0.00000000E+00  0.00000000E+00  0.00000000E+00
  0.00000000E+00  0.00000000E+00  0.00000000E+00
  0.00000000E+00  0.00000000E+00  0.00000000E+00
  0.00000000E+00  0.00000000E+00  0.00000000E+00
  0.00000000E+00  0.00000000E+00  0.00000000E+00
  0.00000000E+00  0.00000000E+00  0.00000000E+00
  0.00000000E+00  0.00000000E+00  0.00000000E+00
  0.00000000E+00  0.00000000E+00  0.00000000E+00
  0.00000000E+00  0.00000000E+00  0.00000000E+00
  0.00000000E+00  0.00000000E+00  0.00000000E+00
  0.00000000E+00  0.00000000E+00  0.00000000E+00
  0.00000000E+00  0.00000000E+00  0.00000000E+00
  0.00000000E+00  0.00000000E+00  0.00000000E+00
  0.00000000E+00  0.00000000E+00  0.00000000E+00
  0.00000000E+00  0.00000000E+00  0.00000000E+00
  0.00000000E+00  0.00000000E+00  0.00000000E+00
  0.00000000E+00  0.00000000E+00  0.00000000E+00
  0.00000000E+00  0.00000000E+00  0.00000000E+00
  0.00000000E+00  0.00000000E+00  0.00000000E+00
  0.00000000E+00  0.00000000E+00  0.00000000E+00
  0.00000000E+00  0.00000000E+00  0.00000000E+00
  0.00000000E+00  0.00000000E+00  0.00000000E+00
  0.00000000E+00  0.00000000E+00  0.00000000E+00
  0.00000000E+00  0.00000000E+00  0.00000000E+00
  0.00000000E+00  0.00000000E+00  0.00000000E+00
  0.00000000E+00  0.00000000E+00  0.00000000E+00
  0.00000000E+00  0.00000000E+00  0.00000000E+00
  0.00000000E+00  0.00000000E+00  0.00000000E+00
  0.00000000E+00  0.00000000E+00  0.00000000E+00
  0.00000000E+00  0.00000000E+00  0.00000000E+00
  0.00000000E+00  0.00000000E+00  0.00000000E+00
  0.00000000E+00  0.00000000E+00  0.00000000E+00
  0.00000000E+00  0.00000000E+00  0.00000000E+00
  0.00000000E+00  0.00000000E+00  0.00000000E+00
  0.00000000E+00  0.00000000E+00  0.00000000E+00
  0.00000000E+00  0.00000000E+00  0.00000000E+00
  0.00000000E+00  0.00000000E+00  0.00000000E+00
  0.00000000E+00  0.00000000E+00  0.00000000E+00
  0.00000000E+00  0.00000000E+00  0.00000000E+00
  0.00000000E+00  0.00000000E+00  0.00000000E+00
  0.00000000E+00  0.00000000E+00  0.00000000E+00
  0.00000000E+00  0.00000000E+00  0.00000000E+00
  0.00000000E+00  0.00000000E+00  0.00000000E+00
  0.00000000E+00  0.00000000E+00  0.00000000E+00
  0.00000000E+00  0.00000000E+00  0.00000000E+00
  0.00000000E+00  0.00000000E+00  0.00000000E+00
  0.00000000E+00  0.00000000E+00  0.00000000E+00
  0.00000000E+00  0.00000000E+00  0.00000000E+00
  0.00000000E+00  0.00000000E+00  0.00000000E+00
  0.00000000E+00  0.00000000E+00  0.00000000E+00
  0.00000000E+00  0.00000000E+00  0.00000000E+00
  0.00000000E+00  0.00000000E+00  0.00000000E+00
  0.00000000E+00  0.00000000E+00  0.00000000E+00
  0.00000000E+00  0.00000000E+00  0.00000000E+00
  0.00000000E+00  0.00000000E+00  0.00000000E+00
  0.00000000E+00  0.00000000E+00  0.00000000E+00
  0.00000000E+00  0.00000000E+00  0.00000000E+00
  0.00000000E+00  0.00000000E+00  0.00000000E+00
  0.00000000E+00  0.00000000E+00  0.00000000E+00
  0.00000000E+00  0.00000000E+00  0.00000000E+00
  0.00000000E+00  0.00000000E+00  0.00000000E+00
  0.00000000E+00  0.00000000E+00  0.00000000E+00
