Li16 Ta11 Nb5 O48
-1265.144
   5.1472556000000003   -2.9717758000000001    9.2417020000000001
   0.0000000000000000    5.9435406000000004    9.2417020000000001
  -5.1472556000000003   -2.9717758000000001    9.2417020000000001
Li Ta Nb O
16 11 5 48
direct
   0.1409440000000000    0.1409443000000000    0.1409440000000000 Li
   0.1409440000000000    0.1409443000000000    0.6409440000000000 Li
   0.1409440000000000    0.6409443000000000    0.1409440000000000 Li
   0.1409440000000000    0.6409443000000000    0.6409440000000000 Li
   0.6409440000000000    0.1409443000000000    0.1409440000000000 Li
   0.6409440000000000    0.1409443000000000    0.6409440000000000 Li
   0.6409440000000000    0.6409443000000000    0.1409440000000000 Li
   0.6409440000000000    0.6409443000000000    0.6409440000000000 Li
   0.3909430000000000    0.3909436000000000    0.3909430000000000 Li
   0.3909430000000000    0.3909436000000000    0.8909430000000000 Li
   0.3909430000000000    0.8909435999999999    0.3909430000000000 Li
   0.3909430000000000    0.8909435999999999    0.8909430000000000 Li
   0.8909430000000000    0.3909436000000000    0.3909430000000000 Li
   0.8909430000000000    0.3909436000000000    0.8909430000000000 Li
   0.8909430000000000    0.8909435999999999    0.3909430000000000 Li
   0.8909430000000000    0.8909435999999999    0.8909430000000000 Li
   0.0002050000000000    0.0002050000000000    0.0002050000000000 Ta
   0.0002050000000000    0.0002050000000000    0.5002051000000000 Ta
   0.0002050000000000    0.5002051000000000    0.0002050000000000 Ta
   0.0002050000000000    0.5002051000000000    0.5002051000000000 Ta
   0.5002051000000000    0.0002050000000000    0.0002050000000000 Ta
   0.5002051000000000    0.5002051000000000    0.5002051000000000 Ta
   0.2502043000000000    0.2502047000000000    0.2502043000000000 Ta
   0.2502043000000000    0.2502047000000000    0.7502043000000000 Ta
   0.7502043000000000    0.2502047000000000    0.2502043000000000 Ta
   0.7502043000000000    0.2502047000000000    0.7502043000000000 Ta
   0.7502043000000000    0.7502046999999999    0.2502043000000000 Ta
   0.5002051000000000    0.0002050000000000    0.5002051000000000 Nb
   0.5002051000000000    0.5002051000000000    0.0002050000000000 Nb
   0.2502043000000000    0.7502046999999999    0.2502043000000000 Nb
   0.2502043000000000    0.7502046999999999    0.7502043000000000 Nb
   0.7502043000000000    0.7502046999999999    0.7502043000000000 Nb
   0.0538124000000000    0.1816432000000000    0.3601874000000000 O
   0.0538124000000000    0.1816432000000000    0.8601874000000000 O
   0.0538124000000000    0.6816430999999999    0.3601874000000000 O
   0.0538124000000000    0.6816430999999999    0.8601874000000000 O
   0.5538123000000000    0.1816432000000000    0.3601874000000000 O
   0.5538123000000000    0.1816432000000000    0.8601874000000000 O
   0.5538123000000000    0.6816430999999999    0.3601874000000000 O
   0.5538123000000000    0.6816430999999999    0.8601874000000000 O
   0.3601873000000000    0.0538129000000000    0.1816427000000000 O
   0.3601873000000000    0.0538129000000000    0.6816427000000000 O
   0.3601873000000000    0.5538129000000001    0.1816427000000000 O
   0.3601873000000000    0.5538129000000001    0.6816427000000000 O
   0.8601873000000000    0.0538129000000000    0.1816427000000000 O
   0.8601873000000000    0.0538129000000000    0.6816427000000000 O
   0.8601873000000000    0.5538129000000001    0.1816427000000000 O
   0.8601873000000000    0.5538129000000001    0.6816427000000000 O
   0.1816428000000000    0.3601876000000000    0.0538124000000000 O
   0.1816428000000000    0.3601876000000000    0.5538125000000000 O
   0.1816428000000000    0.8601876000000001    0.0538124000000000 O
   0.1816428000000000    0.8601876000000001    0.5538125000000000 O
   0.6816429000000001    0.3601876000000000    0.0538124000000000 O
   0.6816429000000001    0.3601876000000000    0.5538125000000000 O
   0.6816429000000001    0.8601876000000001    0.0538124000000000 O
   0.6816429000000001    0.8601876000000001    0.5538125000000000 O
   0.4316420000000000    0.3038123000000000    0.1101893000000000 O
   0.4316420000000000    0.3038123000000000    0.6101893000000000 O
   0.4316420000000000    0.8038123000000000    0.1101893000000000 O
   0.4316420000000000    0.8038123000000000    0.6101893000000000 O
   0.9316420000000000    0.3038123000000000    0.1101893000000000 O
   0.9316420000000000    0.3038123000000000    0.6101893000000000 O
   0.9316420000000000    0.8038123000000000    0.1101893000000000 O
   0.9316420000000000    0.8038123000000000    0.6101893000000000 O
   0.1101894000000000    0.4316424000000000    0.3038117000000000 O
   0.1101894000000000    0.4316424000000000    0.8038118000000000 O
   0.1101894000000000    0.9316424000000000    0.3038117000000000 O
   0.1101894000000000    0.9316424000000000    0.8038118000000000 O
   0.6101894000000000    0.4316424000000000    0.3038117000000000 O
   0.6101894000000000    0.4316424000000000    0.8038118000000000 O
   0.6101894000000000    0.9316424000000000    0.3038117000000000 O
   0.6101894000000000    0.9316424000000000    0.8038118000000000 O
   0.3038116000000000    0.1101900000000000    0.4316419000000000 O
   0.3038116000000000    0.1101900000000000    0.9316419000000000 O
   0.3038116000000000    0.6101901000000000    0.4316419000000000 O
   0.3038116000000000    0.6101901000000000    0.9316419000000000 O
   0.8038116000000000    0.1101900000000000    0.4316419000000000 O
   0.8038116000000000    0.1101900000000000    0.9316419000000000 O
   0.8038116000000000    0.6101901000000000    0.4316419000000000 O
   0.8038116000000000    0.6101901000000000    0.9316419000000000 O
