Li Nb  O Ta + -1 %                      
  0.996655493412596     
     5.1321741009646971   -2.9614763259031940    9.1971252761938320
     0.0025651344519096    5.9243134101589350    9.1961372545398792
    -5.1292300287877097   -2.9627385139439704    9.1950795262775937
   Li   Nb   O    Ta
    16    10    48     6
Direct
  0.1386328396071971  0.1395586908921581  0.1400128006103161
  0.3914572429135983  0.3901593052656949  0.3909704954170914
  0.1404118321577625  0.1404917407504778  0.6410353045606425
  0.3916876280369461  0.3909543223344569  0.8907127522962621
  0.1402112391892435  0.6393495982214641  0.1400747368984204
  0.3901799563882348  0.8903135926951772  0.3905120753772345
  0.1403965877416293  0.6388286488375243  0.6395850422200517
  0.3907929957671450  0.8913210686969241  0.8902733642985786
  0.6398708140532341  0.1409055278455566  0.1387322790504418
  0.8909220197815761  0.3920235474719321  0.3912594870820833
  0.6405486513039518  0.1399421091040098  0.6392157849642028
  0.8911464812930396  0.3918493777698815  0.8900814412719300
  0.6400310424603681  0.6406493895837443  0.1402519451442920
  0.8896784817903298  0.8903080305550616  0.3916070946864135
  0.6410414524748086  0.6402362032211690  0.6414946890116636
  0.8910335182473387  0.8908521837336159  0.8914237640711339
  0.9995608118792381  0.0014707660329962  0.9967238899395493
  0.9993241996677605 -0.0000065383349147  0.4976418124049897
  0.2516249378916675  0.2488807372373419  0.7495699508511008
  0.9974662359559593  0.4979243530584307  0.0007974055120708
  0.0004616993327466  0.4971328066689092  0.5008528331459016
  0.4998787364893605  0.9973229517964750  0.0008195090483964
  0.4995354906304087  0.5000174702783643  0.9977982984388771
  0.7509957733493212  0.7493463263059363  0.2497874863642518
  0.4997999711847032  0.5012548237275475  0.4965570825036325
  0.7494047558952206  0.7508480202868595  0.7480219163286903
  0.0552770293846130  0.1823281310732394  0.3602888574064723
  0.3601794110622482  0.0553285157156340  0.1823891532711067
  0.1817685978820991  0.3602113546491713  0.0553908760615170
  0.4327440449196144  0.3049480391338407  0.1097811857424724
  0.1090669208057471  0.4331230220607262  0.3049436355294120
  0.3052127361131555  0.1100425127591623  0.4325724753907746
  0.0545807507641934  0.1826696384219864  0.8600559946943340
  0.3591453757360730  0.0555587376732059  0.6830838054956438
  0.1826585098113404  0.3603787432071457  0.5547437306312046
  0.4328045143117966  0.3044328692951311  0.6106740609421878
  0.1103585847585652  0.4317994916413052  0.8046314954880525
  0.3043630703272572  0.1104043375783474  0.9329526320598056
  0.0551074944446413  0.6818577797656511  0.3605065310048745
  0.3603430968932251  0.5552073537010340  0.1819209068928875
  0.1815331561283956  0.8605413200613899  0.0553350636725566
  0.4320708098663854  0.8057924458272814  0.1095539484643210
  0.1098506449835119  0.9322817660775257  0.3056063611938087
  0.3054906910878365  0.6093777191338864  0.4324728316878744
  0.0554445649895890  0.6809954106907468  0.8604118397922651
  0.3605232330118785  0.5552279311603194  0.6815386131694058
  0.1816114136123744  0.8604008585610864  0.5553100440749665
  0.4321982415147013  0.8053644919744698  0.6096732448228847
  0.1095224406703591  0.9319576429985996  0.8056416337812551
  0.3050554862643864  0.6094559813870418  0.9326735619437491
  0.5557424166765962  0.1819723212156300  0.3601659625330989
  0.8607160895558503  0.0549254649381671  0.1817595060474329
  0.6820688019552817  0.3604188918993876  0.0550932840298288
  0.9320073664634424  0.3055603497699564  0.1094897782411593
  0.6098466181627010  0.4324885534619850  0.3054513677914076
  0.8057243172770090  0.1094699224348654  0.4324796962457396
  0.5553298929435734  0.1812720316245087  0.8605295394764588
  0.8603137461156931  0.0550447556541377  0.6817027201766442
  0.6817001841621353  0.3604797849816172  0.5553030755424968
  0.9323772489261293  0.3053838420614201  0.6095397984345720
  0.6097786931883581  0.4321915748442594  0.8054092301769721
  0.8053818514949529  0.1091097683124682  0.9325299407368952
  0.5547668376475231  0.6828703559489762  0.3597791462724787
  0.8597922641795905  0.5554820176115114  0.1816007438648935
  0.6821504066780697  0.8601508738277571  0.0549273728311016
  0.9324344931393543  0.8041728771404303  0.1105468253301672
  0.6103332784428124  0.9327111227954198  0.3045619276277876
  0.8042094988122573  0.6104720692024753  0.4322241846576271
  0.5547047471849793  0.6819612320160651  0.8605768477145598
  0.8602474491309519  0.5549951834804565  0.6816370446422995
  0.6820931250887379  0.8594827786031145  0.5556618805541659
  0.9324628982735076  0.8045354573452085  0.6105318152308455
  0.6099480266586723  0.9323737064647996  0.8048995561453383
  0.8049686763518760  0.6105449051253021  0.9312387796101291
  0.2486315187698429  0.2498774802193687  0.2476090153293738
  0.2480393563250684  0.7480466970003422  0.2484633013638531
  0.2474576232379885  0.7474554667979552  0.7493537252292073
  0.7472633969046532  0.2477430179395871  0.2492003736565520
  0.4968514771255510  0.9975836985913470  0.5001212691777536
  0.7483066843001310  0.2482906501067206  0.7483009666171471
 
  0.00000000E+00  0.00000000E+00  0.00000000E+00
  0.00000000E+00  0.00000000E+00  0.00000000E+00
  0.00000000E+00  0.00000000E+00  0.00000000E+00
  0.00000000E+00  0.00000000E+00  0.00000000E+00
  0.00000000E+00  0.00000000E+00  0.00000000E+00
  0.00000000E+00  0.00000000E+00  0.00000000E+00
  0.00000000E+00  0.00000000E+00  0.00000000E+00
  0.00000000E+00  0.00000000E+00  0.00000000E+00
  0.00000000E+00  0.00000000E+00  0.00000000E+00
  0.00000000E+00  0.00000000E+00  0.00000000E+00
  0.00000000E+00  0.00000000E+00  0.00000000E+00
  0.00000000E+00  0.00000000E+00  0.00000000E+00
  0.00000000E+00  0.00000000E+00  0.00000000E+00
  0.00000000E+00  0.00000000E+00  0.00000000E+00
  0.00000000E+00  0.00000000E+00  0.00000000E+00
  0.00000000E+00  0.00000000E+00  0.00000000E+00
  0.00000000E+00  0.00000000E+00  0.00000000E+00
  0.00000000E+00  0.00000000E+00  0.00000000E+00
  0.00000000E+00  0.00000000E+00  0.00000000E+00
  0.00000000E+00  0.00000000E+00  0.00000000E+00
  0.00000000E+00  0.00000000E+00  0.00000000E+00
  0.00000000E+00  0.00000000E+00  0.00000000E+00
  0.00000000E+00  0.00000000E+00  0.00000000E+00
  0.00000000E+00  0.00000000E+00  0.00000000E+00
  0.00000000E+00  0.00000000E+00  0.00000000E+00
  0.00000000E+00  0.00000000E+00  0.00000000E+00
  0.00000000E+00  0.00000000E+00  0.00000000E+00
  0.00000000E+00  0.00000000E+00  0.00000000E+00
  0.00000000E+00  0.00000000E+00  0.00000000E+00
  0.00000000E+00  0.00000000E+00  0.00000000E+00
  0.00000000E+00  0.00000000E+00  0.00000000E+00
  0.00000000E+00  0.00000000E+00  0.00000000E+00
  0.00000000E+00  0.00000000E+00  0.00000000E+00
  0.00000000E+00  0.00000000E+00  0.00000000E+00
  0.00000000E+00  0.00000000E+00  0.00000000E+00
  0.00000000E+00  0.00000000E+00  0.00000000E+00
  0.00000000E+00  0.00000000E+00  0.00000000E+00
  0.00000000E+00  0.00000000E+00  0.00000000E+00
  0.00000000E+00  0.00000000E+00  0.00000000E+00
  0.00000000E+00  0.00000000E+00  0.00000000E+00
  0.00000000E+00  0.00000000E+00  0.00000000E+00
  0.00000000E+00  0.00000000E+00  0.00000000E+00
  0.00000000E+00  0.00000000E+00  0.00000000E+00
  0.00000000E+00  0.00000000E+00  0.00000000E+00
  0.00000000E+00  0.00000000E+00  0.00000000E+00
  0.00000000E+00  0.00000000E+00  0.00000000E+00
  0.00000000E+00  0.00000000E+00  0.00000000E+00
  0.00000000E+00  0.00000000E+00  0.00000000E+00
  0.00000000E+00  0.00000000E+00  0.00000000E+00
  0.00000000E+00  0.00000000E+00  0.00000000E+00
  0.00000000E+00  0.00000000E+00  0.00000000E+00
  0.00000000E+00  0.00000000E+00  0.00000000E+00
  0.00000000E+00  0.00000000E+00  0.00000000E+00
  0.00000000E+00  0.00000000E+00  0.00000000E+00
  0.00000000E+00  0.00000000E+00  0.00000000E+00
  0.00000000E+00  0.00000000E+00  0.00000000E+00
  0.00000000E+00  0.00000000E+00  0.00000000E+00
  0.00000000E+00  0.00000000E+00  0.00000000E+00
  0.00000000E+00  0.00000000E+00  0.00000000E+00
  0.00000000E+00  0.00000000E+00  0.00000000E+00
  0.00000000E+00  0.00000000E+00  0.00000000E+00
  0.00000000E+00  0.00000000E+00  0.00000000E+00
  0.00000000E+00  0.00000000E+00  0.00000000E+00
  0.00000000E+00  0.00000000E+00  0.00000000E+00
  0.00000000E+00  0.00000000E+00  0.00000000E+00
  0.00000000E+00  0.00000000E+00  0.00000000E+00
  0.00000000E+00  0.00000000E+00  0.00000000E+00
  0.00000000E+00  0.00000000E+00  0.00000000E+00
  0.00000000E+00  0.00000000E+00  0.00000000E+00
  0.00000000E+00  0.00000000E+00  0.00000000E+00
  0.00000000E+00  0.00000000E+00  0.00000000E+00
  0.00000000E+00  0.00000000E+00  0.00000000E+00
  0.00000000E+00  0.00000000E+00  0.00000000E+00
  0.00000000E+00  0.00000000E+00  0.00000000E+00
  0.00000000E+00  0.00000000E+00  0.00000000E+00
  0.00000000E+00  0.00000000E+00  0.00000000E+00
  0.00000000E+00  0.00000000E+00  0.00000000E+00
  0.00000000E+00  0.00000000E+00  0.00000000E+00
  0.00000000E+00  0.00000000E+00  0.00000000E+00
  0.00000000E+00  0.00000000E+00  0.00000000E+00
